108
Lattice="11.458617680385277 0.0 0.0 0.0 11.458617680385277 0.0 0.0 0.0 11.458617680385277" Properties=species:S:1:pos:R:3:momenta:R:3:forces:R:3 energy=-359.85382080078125 stress="0.0030571219976991415 -0.005702022463083267 0.0018441140418872237 -0.005702022463083267 0.007108544930815697 -0.001171816373243928 0.0018441140418872237 -0.001171816373243928 0.00875280611217022" pbc="T T T"
Cu     -16.19549570     -52.50209022      73.97408250      -0.96228758       1.70660347       0.84557765       0.57714397       0.47772688       0.26061937
Cu      74.49435067     -70.18095501      30.63080502      -1.03075780       1.79867527      -0.09174622       0.51741290      -0.35827097       0.01981338
Cu     -42.19211282     -55.42625992      23.24600581       2.79959909      -0.90371098       1.45240275       0.52133691      -0.28504550      -0.01348877
Cu     -20.76179046      66.19607932     -56.34866602      -5.47067482       0.17034016      -0.09516424      -0.77929908       0.45525265      -0.12102745
Cu     -31.71224934     -74.96628243       7.34798018      -2.16851493       0.57024478      -1.16794915       0.31261444      -0.12886859      -0.43936557
Cu      23.03185505      42.39002892      16.48140104      -3.54333480       0.96523824       3.62337123      -2.19921017       0.42445061       1.77695847
Cu      27.47201345     -17.47453466      39.91290203       1.48165979       3.32871944      -0.09836146      -1.64994001      -0.90302086       0.49179903
Cu      20.79379108     -25.84966633     -10.22199170       0.25953684       0.63786161       0.35169016      -1.44318414       0.55292559       0.43110541
Cu      29.78083222      66.14442192     -43.34670560       2.74893791      -0.15314055       4.42550818      -0.19070515      -0.59912091      -0.07888958
Cu     -11.78736978      19.60523279      -8.84723012      -0.29669456      -0.37209894       1.25080875       1.70077205      -0.09808505      -0.22698435
Cu      18.04555375     -42.69466361      -7.96000385      -0.17615928      -3.91237918       2.67384555      -0.85523629       0.05424398       0.02615667
Cu      -3.06341400    -127.01005606     -17.60538289       2.50221890       0.54904343       3.12864655      -1.55024028      -0.25405681       0.97877473
Cu     -78.43051895      22.77959409     -36.26901963       1.09934935       1.97242998       0.66406748      -0.63998735      -0.41028109      -0.31514552
Cu       9.72569519     -32.93810394     -51.34789985       0.07793970      -1.92292914      -0.53502617      -0.53732884      -1.14980149       0.18747321
Cu     -11.60408193      32.50359622      11.78317313      -1.73958093      -1.38482920       0.46780351      -0.27279907      -0.42498770      -1.17972481
Cu       5.01255041      11.93964186      -5.22138950       0.40240711      -0.09619240       1.75292064      -0.13882028       0.04234552       0.18691455
Cu     -24.13666118      -5.26162546      35.83854508      -1.26262327       3.33439599      -0.23439076       0.22338079      -0.18365219      -0.25621763
Cu     -13.51438707      65.49376097     -18.75663538      -2.33224648      -0.28686441      -1.90732308      -0.88899535       1.33026934       0.43961805
Cu       9.41271820     -13.49253250      32.88155757      -0.32513880       3.23577350       6.34915710       1.20414293       1.99704432       0.18615788
Cu       6.94479274      38.70777011      11.72512241      -2.63851459       2.14024085       0.93792063      -0.04769197      -1.24261832      -0.26925966
Cu     -13.99647668      36.13055103      66.00697920      -0.78645500      -1.76294513       3.63575171       0.21023542      -0.67978412      -0.25591859
Cu     -35.38418487      -0.86441115      27.65975483       2.27981246       0.44207440      -0.45848448       2.55953074       0.65565944      -1.64741051
Cu      28.99223106      -1.52698999     -40.77146958       2.70537042      -1.32651533      -3.30367646       0.29323322      -0.19105174      -0.00342968
Cu     -18.98979293      97.67150643      78.54265113      -0.46229720      -2.48794716       0.68478893       1.89346719      -0.62667513      -1.51235211
Cu     -58.32427241      45.19585713      36.40399865       3.15369710       1.14274887       8.17763129      -0.54607832      -1.09436238       1.77621603
Cu      -0.89006586     -32.98512201      47.06648335       0.70043641       2.79250570       2.69717481      -0.02443810       1.45004535      -0.95297611
Cu     -70.41244671     -26.83644777     -25.92253546       1.41902411       5.32973841      -2.38042023       0.83923733      -0.29930535      -0.95559740
Cu     -26.69159616      51.77249349     -47.50041454      -0.29540413      -6.42605091       3.36978474       0.20088959       0.92823458      -0.01912370
Cu     -20.28681124     -22.63082841      27.35294126       4.35799593      -3.81093394      -2.60980393       0.69922042      -0.77976459       0.49939471
Cu     -65.23432959      38.80725342      14.84294542       1.70856899      -4.89650018      -4.51729889       0.71565396       0.78840292       0.82065940
Cu    -101.14177107      54.02788112       4.05157836       0.30822853      -6.70290839       4.06030532       0.87912625      -0.45736396      -0.74065226
Cu      -7.56758631      14.55765052      76.99675153      -1.86950024       2.28762839      -5.16197788       1.80032802       1.02462935      -2.79802370
Cu      14.44167612      30.22956832      40.72793927       2.26252848      -3.48658215      -0.53898975      -0.56226808       0.43963113       0.08786839
Cu      34.79843131      38.08960410     -15.99429640       2.74956779       1.34656642      -3.33059875      -1.11487031       1.54862761      -0.57013798
Cu     -50.04001100      12.86614514      36.44680046       3.47598575      -2.54810671       2.62223142      -1.71770036       0.83327794      -1.84973049
Cu     -33.97611342      -4.59471003      18.67970897       3.81629702      -0.69262445       1.59737221       0.25126842      -0.27800021       0.16949899
Cu      81.67962554      17.17785737     -32.00999311       0.64593688      -3.08736475      -0.15441759      -0.60382271      -0.18653558      -0.36017221
Cu     -19.85197802      27.28224508      45.57333244      -2.99921204      -1.58260101      -1.25797500       0.07927449      -0.77148485       0.47645581
Cu       6.08306793      -6.96324034     -26.73766300       0.50923577       0.12686441       1.42354684      -1.09022307       0.27951518      -0.25460970
Cu      33.57885305       0.37973673     -46.87134835      -0.80629960      -1.74669516      -8.14711372      -0.02562600      -0.07809396      -0.24589272
Cu      12.49459136      -1.27941111     -31.35508465      -3.00011171       3.71091456       1.08252064      -0.11860634       0.46998006       0.23737058
Cu      50.73931809     -19.24410647       1.58404699      -0.35479000      -0.74879231       1.06441297       0.19610547      -0.30263090      -0.35148388
Cu     -13.86287354      15.63451476     -66.95551802       1.49732386       1.44742301       1.28245158      -1.53961825      -0.54107064      -0.14102149
Cu      -5.62149150     -38.39402470      -1.34386181       2.17920896       2.96598415      -0.99617308      -1.04498458      -0.75955409       0.34963652
Cu     -11.22065882     -10.25735553      37.76154179       3.80047015       2.20707506       0.96635326       0.05234962      -0.41907525      -1.30551648
Cu      24.32808165     114.43639936     -10.89870710       0.62306574      -1.26709288       3.32608206      -2.39780569      -1.58556569      -2.46278572
Cu     120.69244294     -34.85889287       1.12517277      -2.71089559      -0.74997989       0.29441001      -0.11530684      -1.01857054      -0.73861837
Cu      -2.20147409      15.00092862     -50.28871309       3.35474688       0.85406464      -2.64840013      -0.33533528       0.11300993      -0.94117033
Cu      65.93412222     -69.21668463     -56.83042455      -2.04661295       1.66962688      -4.85914004      -0.14495951       0.53739440      -0.11310758
Cu      27.77517143      10.98782866      -8.32019818       1.47923663      -2.66562779      -4.17887982       0.99596798       0.87979722       0.73495519
Cu     -48.98958559    -108.16844840     -54.03850429      -0.91436668       2.96526308      -3.79454852      -0.31898212      -0.46527362      -0.46154714
Cu     -53.93729448      21.25626676      18.89564259       3.87046407       0.76907366       3.02783167       0.35939142      -0.52302396       1.04504097
Cu      -3.88663190     -27.91887907     -10.66370805      -2.75786177      -0.85341384      -4.93996045       0.55314088       1.30241966       0.41426805
Cu     -59.67206787     -67.16832113      37.60848195      -2.49532871      -3.53494175      -4.06536505       2.08342457       0.88407207       1.55033040
Cu       2.56774355     -22.39495183       2.07435776       0.36917672       4.72880211      -2.03465157       2.53314161       1.48062634       2.91193986
Cu      92.43071682      16.36845195      80.24177978       2.72011894       2.33957567      -1.07927671      -0.68877721      -0.60203016       0.03446393
Cu      58.22397423       1.90993456       8.05646936      -0.25190453      -0.77994879      -2.59529086       0.25650457      -0.09084779       0.56731343
Cu      67.80131161      55.40833849      -4.66417186       1.75101251       0.06769828      -1.86251787      -0.25417632      -0.93392897       1.06475711
Cu      -1.97117115     -64.07056292      11.03440649      -1.10736894       4.09540728       3.11104876       0.08284505       0.95977795      -0.32062119
Cu      24.48771146      38.49333617      77.75804150      -2.49291347       1.14589352       0.85462683      -1.35713732       1.34966016       0.72678411
Cu      -1.74332078     -61.48599837     -46.55833481      -0.40277794       1.82392674       2.91454628      -0.51832515      -1.15720177       0.15845266
Cu     102.24720217      51.34914331      61.05189515      -1.10462327      -1.49904199       0.78288172       1.21168005       0.12649709      -0.34971750
Cu      24.36414615      -5.35993281      27.71808167      -3.36868169       3.25423965      -0.67265881       0.06676028      -1.18969333       0.51344472
Cu      35.23013438      12.78636295       5.51687135      -2.80222417      -2.60670858       0.35330478      -0.03778868       0.01688916       2.25743365
Cu     -19.61352179     -59.29752258     -20.09400619      -3.98409338       1.67479056      -2.45760546       1.08004367       0.38551807      -0.85948926
Cu     -18.21944077      60.27997071       5.63979834       3.42867949      -2.30982760       0.16882559      -0.02437481       0.19260558       0.32797533
Cu      -7.43803683     -10.77770969      -1.90579187      -1.65720928      -1.99667467      -2.95183665       2.40965986      -1.27037144      -0.54842788
Cu      15.11359688      44.88768047     -23.05431279      -4.09516403       3.87893639       1.06343797      -2.00298190       1.58111978       2.12026453
Cu     -59.44679183      17.57761734      51.42357259      -0.57047848       1.93862554      -3.18644153      -0.10234019      -0.34418964       0.95549184
Cu      19.48753187      22.39633022     -19.95738960      -4.12425831      -6.85850972      -2.54531735       0.15363126      -1.64122820       0.20687066
Cu     -15.26960611     -45.68700621      99.09483093       1.52156777       5.25287269       3.80988723      -0.00058590      -0.11050704      -1.01680565
Cu      26.48669671     -50.38150039      14.03491177      -0.09011990       8.10856965       5.00718213       0.46539134       0.26723665       0.50147927
Cu     -17.83487892     -51.23509237     -22.16677545       3.63508439      -3.83235707       1.07247346      -0.12172037      -0.71659249      -1.23905146
Cu      46.32418050      -4.16068831     -34.32222608       3.01047913       3.88276313       4.66087633       0.04779549       0.19221109       0.18215571
Cu       5.15303523      -8.06253407     -58.53826381       2.30630447      -2.97217627      -0.94092037       0.16791636       0.44927347       0.45620465
Cu      24.68212510      29.41138006     -24.79933469      -1.94802406      -1.69570390      -3.33408385      -2.14412403      -0.30132240      -1.10009587
Cu      64.94633935     -37.50444579       9.06807562      -4.73828422       1.01399086       1.27773172      -0.72954810       0.15016073      -1.95011747
Cu     111.64729688     -37.63695737     -50.74429214      -4.14958692       0.32760211      -5.34248508      -0.85121405       0.42906034      -0.12556285
Cu     -21.81032127      -9.47186406     -11.64932823      -0.99864387      -2.09910010       0.90117105      -1.18752074       1.12854850       0.96527100
Cu      21.41949177      27.88788752       8.65102905       4.14431851       2.94018347      -1.61630879       0.49581403       1.49549103      -0.06481954
Cu     -49.54848011       3.82200287     -25.28978300       3.85178487      -2.42115151       0.54513969       0.39415315      -1.38116217       0.52424955
Cu       5.38758121      -3.99844151      85.30714871       2.05697543      -2.85916047       1.78016757       1.46875453       0.39807394      -1.14408243
Cu      91.24235135      11.67318687      30.78495476      -2.05328752       3.80977813      -0.90186276      -0.94597739      -1.28550243      -0.10368367
Cu      -5.06307795      -9.98432017      91.39432846      -0.13053288       2.43561947       1.10291289      -0.50760746       0.91802549       0.36553037
Cu     -67.38753478      44.48915609     -73.98357965      -1.29023277      -0.04021623      -0.43825249      -0.30907831       0.22872229      -0.71365672
Cu      -2.80511686      84.28020033     -64.70141239       1.52791860      -1.76195168      -0.20178769       0.68506694      -0.41114682       1.24960637
Cu       7.43923302      22.88852508       9.80157938      -1.38534438       0.25578705       1.89674619       0.30929479      -1.26700008      -0.08692491
Cu     -28.15406579      36.17266062      31.58722648       0.71322719      -1.37288712      -0.25262650      -0.30640268       0.06405637      -0.26222202
Cu      29.90130718     -43.39817260      17.89265500       1.11784591       0.93086186      -2.63714287       0.53441733       0.36114967       0.05817829
Cu      62.42347672      32.59625332      90.31967659      -0.41617752      -2.59653516       0.43685577       2.45488977      -0.21167952      -2.00196576
Cu      41.70931118      89.20822842     -34.57865294       1.53609157      -2.91857075      -1.22572035      -0.53116351       0.24144253       1.19326198
Cu      39.14213849      42.83643776     -67.91881286      -1.14436125      -1.66096219       0.17723041       0.31308162       0.46261907       0.27815294
Cu     -46.10963306     -42.30382754      13.68989024       2.72179779       2.29092689       2.29630504       1.14421320       0.10576402       0.15065488
Cu      43.25919473     -20.52144705      11.17786053      -0.89122003      -4.97694908       1.34741390      -0.88487631      -0.83217382       0.41302994
Cu      47.88497424     -41.96608008      51.05838889      -0.14703252       0.79360434      -4.33022471       0.49814332      -0.87108994      -0.08354153
Cu     -12.22444907      94.71265941      89.95658065       0.68441406       0.73172119      -1.61200772       1.29938102      -0.66798079      -0.09186670
Cu       5.18887266     -38.72022440       7.42979721      -2.50451185       1.43983478      -2.69065122       0.13915575      -0.00428294       1.09393740
Cu       4.35004223      59.20090515      26.45472216       1.34694348       1.44740651       1.48236061      -0.15131819       0.13658640      -0.62854648
Cu      18.21740945     -10.61387136     -52.64536816       0.85655930      -3.57689188      -2.92461487       0.27957755       0.21004987      -0.80350047
Cu      -8.91159462     -32.09677177      21.07923085      -1.93177617       2.65070341       2.02310433      -0.52719128      -0.90809476       1.92312729
Cu     -23.48187736      25.99756885     -52.56056785      -4.14688548      -6.15587492       5.47559945      -0.01189052       1.14693761      -0.43775964
Cu       5.98511283       6.04209630       2.83628212      -0.62873810      -0.36966578      -2.56712562      -0.10475132      -0.35363033       1.12670958
Cu     -32.09510841      71.98148450      -9.56790560      -0.53817542       4.21365807      -0.98749198      -0.67475158      -0.60304785      -0.43832487
Cu     -20.14354746      80.85023834      30.13033275      -0.20365738      -0.76136181       1.90660487      -0.12509897       0.36105245      -0.09780370
Cu      14.47903470      31.31443350      44.30044484      -1.16038654       0.82123175      -1.03466667       0.38976067       1.43121862      -0.42631480
Cu       2.86730563      41.23592761       0.23405338       0.89129137      -0.01270861       0.83091307      -0.14147662      -1.25273252       0.94575000
Cu      57.88375594     -59.71170938     -36.58790518       0.41509412      -1.57283656       1.81523488      -0.35195902      -0.16661838      -0.13263500
Cu       3.82649622     112.22212309      16.59875846       1.02861622       0.35556031      -2.43409648      -0.11150147       1.92972088       0.18934339
